(set-logic QF_SLAH)

(declare-datatypes ((data_t 0)) (((c_data_t (sz Int)))))

(declare-heap (Int data_t))

(define-fun hck ((?x Int) (?y Int) (?v Int)) Bool
	(and
		(>= (- ?y ?x) 2) (<= (- ?y ?x) ?v)
		(sep (pto ?x (c_data_t (- ?y ?x))) (blk (+ ?x 1) ?y))
))

(define-fun-rec hls ((?x Int) (?y Int) (?v Int)) Bool
	(or
		(and (= ?x ?y) (_ emp Int data_t))
		(exists ((?w Int)) (sep (hck ?x ?w ?v) (hls ?w ?y ?v)))
))

(declare-const x0 Int)
(declare-const x1 Int)
(declare-const v0 Int)
(declare-const x2 Int)
(declare-const x3 Int)
(declare-const x4 Int)
(declare-const x5 Int)
(declare-const x6 Int)
(declare-const x7 Int)
(declare-const x8 Int)
(declare-const x9 Int)
(declare-const v8 Int)
(declare-const x10 Int)
(declare-const x11 Int)
(declare-const x12 Int)
(declare-const x13 Int)
(declare-const v12 Int)
(declare-const x14 Int)
(declare-const x15 Int)
(declare-const v14 Int)
(declare-const x16 Int)
(declare-const x17 Int)
(declare-const v16 Int)
(declare-const x18 Int)
(declare-const x19 Int)
(declare-const x20 Int)
(declare-const x21 Int)
(declare-const x22 Int)
(declare-const x23 Int)
(declare-const x24 Int)
(declare-const x25 Int)
(declare-const x26 Int)
(declare-const x27 Int)
(declare-const x28 Int)
(declare-const x29 Int)
(declare-const v28 Int)
(declare-const x30 Int)
(declare-const x31 Int)
(declare-const x32 Int)
(declare-const x33 Int)
(declare-const v32 Int)
(declare-const x34 Int)
(declare-const x35 Int)
(declare-const v34 Int)
(declare-const x36 Int)
(declare-const x37 Int)
(declare-const v36 Int)
(declare-const x38 Int)
(declare-const x39 Int)
(declare-const x40 Int)
(declare-const x41 Int)
(declare-const v40 Int)
(declare-const x42 Int)
(declare-const x43 Int)
(declare-const x44 Int)
(declare-const x45 Int)
(declare-const x46 Int)
(declare-const x47 Int)
(declare-const x48 Int)
(declare-const x49 Int)
(declare-const x50 Int)
(declare-const x51 Int)
(declare-const v50 Int)
(declare-const x52 Int)
(declare-const x53 Int)
(declare-const x54 Int)
(declare-const x55 Int)
(declare-const v54 Int)
(declare-const x56 Int)
(declare-const x57 Int)
(declare-const v56 Int)
(declare-const x58 Int)
(declare-const x59 Int)
(declare-const v58 Int)
(declare-const x60 Int)
(declare-const x61 Int)
(declare-const x62 Int)
(declare-const x63 Int)
(declare-const v62 Int)
(declare-const x64 Int)
(declare-const x65 Int)
(declare-const x66 Int)
(declare-const x67 Int)
(declare-const v66 Int)
(declare-const x68 Int)
(declare-const x69 Int)
(declare-const x70 Int)
(declare-const x71 Int)
(declare-const x72 Int)
(declare-const x73 Int)
(declare-const v72 Int)
(declare-const x74 Int)
(declare-const x75 Int)
(declare-const x76 Int)
(declare-const x77 Int)
(declare-const x78 Int)
(declare-const x79 Int)
(declare-const v78 Int)
(declare-const x80 Int)
(declare-const x81 Int)
(declare-const x82 Int)
(declare-const x83 Int)
(declare-const x84 Int)
(declare-const x85 Int)
(declare-const x86 Int)
(declare-const x87 Int)
(declare-const x88 Int)
(declare-const x89 Int)
(declare-const v88 Int)
(declare-const x90 Int)
(declare-const x91 Int)
(declare-const v90 Int)
(declare-const x92 Int)
(declare-const x93 Int)
(declare-const x94 Int)
(declare-const x95 Int)
(declare-const x96 Int)
(declare-const x97 Int)
(declare-const x98 Int)
(declare-const x99 Int)
(declare-const v98 Int)
(declare-const x100 Int)
(declare-const x101 Int)
(declare-const v100 Int)
(declare-const x102 Int)
(declare-const x103 Int)
(declare-const x104 Int)
(declare-const x105 Int)
(declare-const x106 Int)
(declare-const x107 Int)
(declare-const x108 Int)
(declare-const x109 Int)

(assert(and
(< x70 x92) (< x77 x8) (< x69 x31) (= x59 x102) (distinct x26 x94) (distinct x10 x47) (distinct x62 x105) 
(sep
(hls x0 x1 v0)
(pto x2 (c_data_t x3))
(blk x4 x5)
(blk x6 x7)
(hls x8 x9 v8)
(blk x10 x11)
(hls x12 x13 v12)
(hls x14 x15 v14)
(hls x16 x17 v16)
(blk x18 x19)
(pto x20 (c_data_t x21))
(pto x22 (c_data_t x23))
(pto x24 (c_data_t x25))
(blk x26 x27)
(hls x28 x29 v28)
(blk x30 x31)
(hls x32 x33 v32)
(hls x34 x35 v34)
(hls x36 x37 v36)
(pto x38 (c_data_t x39))
(hls x40 x41 v40)
(blk x42 x43)
(blk x44 x45)
(blk x46 x47)
(pto x48 (c_data_t x49))
(hls x50 x51 v50)
(blk x52 x53)
(hls x54 x55 v54)
(hls x56 x57 v56)
(hls x58 x59 v58)
(blk x60 x61)
(hls x62 x63 v62)
(pto x64 (c_data_t x65))
(hls x66 x67 v66)
(blk x68 x69)
(pto x70 (c_data_t x71))
(hls x72 x73 v72)
(pto x74 (c_data_t x75))
(pto x76 (c_data_t x77))
(hls x78 x79 v78)
(pto x80 (c_data_t x81))
(pto x82 (c_data_t x83))
(pto x84 (c_data_t x85))
(blk x86 x87)
(hls x88 x89 v88)
(hls x90 x91 v90)
(pto x92 (c_data_t x93))
(blk x94 x95)
(pto x96 (c_data_t x97))
(hls x98 x99 v98)
(hls x100 x101 v100)
(pto x102 (c_data_t x103))
(pto x104 (c_data_t x105))
(blk x106 x107)
(blk x108 x109)
)))

(check-sat)